(set-option :print-success false)
(set-info :smt-lib-version 2.6)
(set-logic ALL_SUPPORTED)
; done setting options


(declare-datatypes ((T@$Location 0)) ((($Global (|a#$Global| Int) ) ($Local (|i#$Local| Int) ) ($Param (|i#$Param| Int) ) ) ))
